     Program PWSCF v.6.5 starts on 18Apr2024 at  4:48:38

     Waiting for input...
     Reading input from standard input

     Current dimensions of program PWSCF are:
     Max number of different atomic species (ntypx) = 10
     Max number of k-points (npk) =  40000
     Max angular momentum in pseudopotentials (lmaxx) =  3
               file V.pbe-spnl-kjpaw_psl.1.0.0.UPF: wavefunction(s)  3P 3D renormalized

     Subspace diagonalization in iterative solution of the eigenvalue problem:
     a serial algorithm will be used

     bravais-lattice index     =            2
     lattice parameter (alat)  =       7.9000  a.u.
     unit-cell volume          =     123.2598 (a.u.)^3
     number of atoms/cell      =            1
     number of atomic types    =            1
     number of electrons       =        13.00
     number of Kohn-Sham states=           11
     kinetic-energy cutoff     =      30.0000  Ry
     charge density cutoff     =     150.0000  Ry
     convergence threshold     =      1.0E-06
     mixing beta               =       0.7000
     number of iterations used =            8  plain     mixing
     Exchange-correlation= SLA PW PBX PBC
                           (   1   4   3   4   0   0   0)

     celldm(1)=   7.900000  celldm(2)=   0.000000  celldm(3)=   0.000000
     celldm(4)=   0.000000  celldm(5)=   0.000000  celldm(6)=   0.000000

     crystal axes: (cart. coord. in units of alat)
               a(1) = (  -0.500000   0.000000   0.500000 )
               a(2) = (   0.000000   0.500000   0.500000 )
               a(3) = (  -0.500000   0.500000   0.000000 )

     reciprocal axes: (cart. coord. in units 2 pi/alat)
               b(1) = ( -1.000000 -1.000000  1.000000 )
               b(2) = (  1.000000  1.000000  1.000000 )
               b(3) = ( -1.000000  1.000000 -1.000000 )

     PseudoPot. # 1 for V  read from file:
     ./V.pbe-spnl-kjpaw_psl.1.0.0.UPF
     MD5 check sum: b7266e480ced0eb694c83b9851164f67
     Pseudo is Projector augmented-wave + core cor, Zval = 13.0
     Generated using "atomic" code by A. Dal Corso v.6.3
     Shape of augmentation charge: PSQ
     Using radial grid of 1181 points,  6 beta functions with:
                l(1) =   0
                l(2) =   0
                l(3) =   1
                l(4) =   1
                l(5) =   2
                l(6) =   2
     Q(r) pseudized with 0 coefficients

     atomic species   valence    mass     pseudopotential
        V             13.00    50.94000     V ( 1.00)

     48 Sym. Ops., with inversion, found

   Cartesian axes

     site n.     atom                  positions (alat units)
         1           V   tau(   1) = (   0.0000000   0.0000000   0.0000000  )

     number of k points=   145  Methfessel-Paxton smearing, width (Ry)=  0.0200

     Number of k-points >= 100: set verbosity='high' to print them.

     Check: negative core charge=   -0.000147

     Initial potential from superposition of free atoms

     starting charge   12.99909, renormalised to   13.00000

     negative rho (up, down):  2.278E-05 0.000E+00
     Starting wfcs are   10 randomized atomic wfcs +    1 random wfcs
     Checking if some PAW data can be deallocated...

     Self-consistent Calculation

     iteration #  1     ecut=    30.00 Ry     beta= 0.70
     Davidson diagonalization with overlap
     ethr =  1.00E-02,  avg # of iterations =  3.4

     negative rho (up, down):  3.373E-04 0.000E+00

     total energy              =    -213.64437923 Ry
     Harris-Foulkes estimate   =    -213.75996148 Ry
     estimated scf accuracy    <       0.15867712 Ry

[...]

     total energy              =    -213.72304843 Ry
     Harris-Foulkes estimate   =    -213.72304891 Ry
     estimated scf accuracy    <       0.00000128 Ry

     iteration #  6     ecut=    30.00 Ry     beta= 0.70
     Davidson diagonalization with overlap
     ethr =  9.85E-09,  avg # of iterations =  2.2

     negative rho (up, down):  4.895E-04 0.000E+00

     End of self-consistent calculation

     Number of k-points >= 100: set verbosity='high' to print the bands.

     the Fermi energy is    11.8428 ev

!    total energy              =    -213.72304873 Ry
     Harris-Foulkes estimate   =    -213.72304880 Ry
     estimated scf accuracy    <       0.00000009 Ry

     total all-electron energy =     -1898.319303 Ry

     The total energy is the sum of the following terms:

     one-electron contribution =     -59.78136025 Ry
     hartree contribution      =      34.02527269 Ry
     xc contribution           =     -20.05934795 Ry
     ewald contribution        =     -98.08122673 Ry
     one-center paw contrib.   =     -69.82642145 Ry
     smearing contrib. (-TS)   =       0.00003495 Ry

     convergence has been achieved in   6 iterations

     Writing output data file ./Al.save/

     General routines

     Parallel routines

   This run was terminated on:   4:48:44  18Apr2024

   JOB DONE.